25
1 0 43
2 0 10
2 1 51
3 0 25
3 1 27
3 2 48
4 0 10
4 1 34
4 2 3
4 3 21
5 0 17
5 1 10
5 2 18
5 3 54
5 4 36
6 0 51
6 1 6
6 2 40
6 3 32
6 4 7
6 5 47
7 0 5
7 1 2
7 2 37
7 3 17
7 4 27
7 5 42
7 6 47
8 0 21
8 1 4
8 2 3
8 3 41
8 4 6
8 5 47
8 6 41
8 7 30
9 0 33
9 1 27
9 2 5
9 3 51
9 4 47
9 5 6
9 6 45
9 7 33
9 8 3
10 0 58
10 1 10
10 2 9
10 3 38
10 4 18
10 5 43
10 6 52
10 7 6
10 8 9
10 9 33
11 0 40
11 1 6
11 2 3
11 3 12
11 4 14
11 5 39
11 6 42
11 7 50
11 8 28
11 9 35
11 10 44
12 0 35
12 1 43
12 2 1
12 3 39
12 4 1
12 5 42
12 6 24
12 7 18
12 8 23
12 9 55
12 10 47
12 11 45
13 0 42
13 1 3
13 2 52
13 3 56
13 4 42
13 5 27
13 6 51
13 7 47
13 8 44
13 9 13
13 10 56
13 11 39
13 12 31
14 0 51
14 1 17
14 2 18
14 3 43
14 4 47
14 5 54
14 6 38
14 7 7
14 8 19
14 9 14
14 10 55
14 11 40
14 12 27
14 13 31
15 0 28
15 1 52
15 2 24
15 3 11
15 4 31
15 5 9
15 6 51
15 7 18
15 8 19
15 9 53
15 10 39
15 11 46
15 12 29
15 13 11
15 14 34
16 0 14
16 1 43
16 2 23
16 3 26
16 4 11
16 5 12
16 6 37
16 7 25
16 8 40
16 9 32
16 10 1
16 11 19
16 12 52
16 13 35
16 14 28
16 15 36
17 0 32
17 1 22
17 2 21
17 3 56
17 4 13
17 5 37
17 6 32
17 7 48
17 8 52
17 9 15
17 10 58
17 11 22
17 12 14
17 13 10
17 14 4
17 15 38
17 16 32
18 0 45
18 1 42
18 2 50
18 3 15
18 4 38
18 5 42
18 6 6
18 7 24
18 8 27
18 9 23
18 10 5
18 11 50
18 12 7
18 13 29
18 14 29
18 15 32
18 16 35
18 17 9
19 0 2
19 1 25
19 2 6
19 3 9
19 4 28
19 5 2
19 6 15
19 7 1
19 8 4
19 9 19
19 10 48
19 11 21
19 12 18
19 13 43
19 14 49
19 15 47
19 16 43
19 17 22
19 18 19
20 0 20
20 1 19
20 2 40
20 3 50
20 4 41
20 5 47
20 6 14
20 7 49
20 8 31
20 9 41
20 10 21
20 11 6
20 12 57
20 13 4
20 14 49
20 15 7
20 16 27
20 17 18
20 18 40
20 19 7
21 0 18
21 1 17
21 2 53
21 3 56
21 4 41
21 5 56
21 6 52
21 7 9
21 8 18
21 9 54
21 10 28
21 11 46
21 12 7
21 13 43
21 14 5
21 15 12
21 16 44
21 17 3
21 18 23
21 19 22
21 20 6
22 0 36
22 1 36
22 2 42
22 3 55
22 4 58
22 5 1
22 6 32
22 7 10
22 8 15
22 9 19
22 10 24
22 11 37
22 12 16
22 13 39
22 14 11
22 15 30
22 16 8
22 17 24
22 18 32
22 19 15
22 20 6
22 21 30
23 0 6
23 1 53
23 2 42
23 3 13
23 4 28
23 5 44
23 6 18
23 7 4
23 8 10
23 9 32
23 10 1
23 11 44
23 12 40
23 13 31
23 14 46
23 15 3
23 16 30
23 17 20
23 18 16
23 19 58
23 20 55
23 21 10
23 22 21
24 0 4
24 1 43
24 2 3
24 3 57
24 4 2
24 5 4
24 6 7
24 7 11
24 8 30
24 9 18
24 10 52
24 11 51
24 12 47
24 13 46
24 14 19
24 15 28
24 16 15
24 17 7
24 18 58
24 19 31
24 20 2
24 21 13
24 22 40
24 23 1
